NAME: st70-24-2
TYPE: TSP
COMMENT: min_cost = 390.67
DIMENSION: 24
EDGE_WEIGHT_TYPE: EUC_2D
NODE_COORD_SECTION
1 82 88
2 79 70
3 29 60
4 73 28
5 54 38
6 48 82
7 62 1
8 58 43
9 64 8
10 41 76
11 55 3
12 7 76
13 83 86
14 9 100
15 56 63
16 27 43
17 25 5
18 44 33
19 75 81
20 78 94
21 80 39
22 29 51
23 69 23
24 40 35
EOF
